50

92 22 289
89 25 359
87 7 314
84 24 336
82 32 272
82 21 318
81 35 301
75 19 288
73 37 329
71 5 393
67 1 256
67 6 249
63 21 189
59 11 184
57 0 368
56 27 389
52 16 313
49 13 152
48 3 385
47 19 319
46 14 376
41 21 220
39 17 246
38 8 287
36 4 161
35 1 149
34 1 220
34 14 140
30 9 222
29 12 379
26 3 247
21 2 336
20 0 144
19 10 134
18 5 286
15 4 196
15 0 372
13 2 164
11 0 256
10 5 175
10 5 178
10 0 350
9 3 389
8 3 334
8 0 322
7 1 310
6 1 140
6 0 67
6 0 193
3 1 202
